NAME : X_30_seed_123_id_4
TYPE : CVRP
DIMENSION : 237
EDGE_WEIGHT_TYPE : EUC_2D
CAPACITY : 18
NODE_COORD_SECTION
1	0	0
2	690	584
3	3	644
4	52	580
5	587	172
6	650	859
7	637	538
8	501	725
9	770	532
10	650	27
11	924	592
12	457	974
13	624	127
14	555	412
15	579	998
16	407	620
17	151	653
18	631	793
19	202	258
20	138	686
21	945	517
22	51	32
23	752	656
24	295	657
25	299	622
26	259	355
27	751	230
28	240	56
29	334	944
30	424	345
31	416	703
32	283	861
33	435	173
34	347	876
35	187	423
36	97	9
37	949	230
38	48	334
39	171	499
40	733	509
41	795	166
42	473	793
43	363	128
44	85	598
45	472	903
46	929	380
47	883	910
48	65	651
49	185	145
50	570	956
51	518	169
52	986	193
53	354	941
54	442	431
55	76	323
56	987	150
57	626	145
58	660	870
59	124	653
60	332	817
61	851	716
62	263	899
63	69	23
64	379	753
65	791	944
66	275	140
67	117	865
68	839	185
69	161	814
70	516	911
71	463	973
72	666	425
73	955	105
74	158	653
75	606	118
76	973	215
77	866	883
78	398	251
79	19	369
80	953	411
81	613	794
82	512	907
83	570	634
84	998	474
85	867	893
86	350	919
87	479	339
88	918	752
89	258	143
90	302	65
91	36	212
92	386	316
93	892	651
94	347	472
95	762	700
96	719	523
97	724	748
98	377	661
99	402	523
100	715	111
101	817	150
102	763	233
103	482	136
104	212	528
105	1	804
106	700	330
107	980	196
108	161	241
109	249	484
110	95	393
111	486	76
112	897	790
113	999	130
114	852	201
115	130	78
116	62	841
117	814	456
118	436	15
119	471	211
120	157	268
121	960	195
122	955	134
123	439	561
124	483	212
125	29	38
126	637	830
127	666	880
128	345	338
129	525	438
130	883	39
131	313	542
132	646	254
133	96	584
134	321	953
135	635	995
136	125	454
137	68	725
138	865	207
139	205	443
140	456	517
141	428	431
142	374	754
143	612	886
144	808	702
145	257	887
146	570	548
147	811	297
148	489	764
149	210	106
150	171	208
151	832	319
152	3	762
153	676	797
154	685	669
155	185	156
156	877	980
157	322	817
158	472	898
159	842	870
160	365	932
161	761	468
162	876	879
163	77	486
164	873	990
165	423	666
166	464	855
167	418	186
168	502	530
169	737	898
170	886	17
171	350	782
172	302	153
173	296	876
174	121	592
175	652	145
176	203	341
177	548	44
178	394	879
179	140	566
180	611	344
181	567	786
182	896	845
183	129	644
184	368	262
185	154	158
186	488	719
187	255	696
188	983	109
189	608	673
190	133	949
191	514	481
192	522	788
193	230	443
194	361	61
195	23	686
196	577	566
197	291	413
198	315	442
199	794	518
200	0	679
201	726	582
202	144	252
203	475	787
204	286	543
205	252	485
206	194	632
207	912	298
208	467	30
209	520	635
210	444	382
211	470	927
212	87	904
213	93	20
214	115	918
215	283	621
216	965	700
217	659	14
218	49	824
219	755	246
220	602	34
221	660	442
222	359	947
223	907	725
224	708	320
225	168	176
226	923	258
227	607	828
228	113	357
229	651	565
230	261	547
231	885	84
232	306	89
233	2	301
234	309	833
235	136	37
236	424	369
237	947	336
DEMAND_SECTION
1	0
2	1
3	1
4	1
5	1
6	1
7	1
8	1
9	1
10	1
11	1
12	1
13	1
14	1
15	1
16	1
17	1
18	1
19	1
20	1
21	1
22	1
23	1
24	1
25	1
26	1
27	1
28	1
29	1
30	1
31	1
32	1
33	1
34	1
35	1
36	1
37	1
38	1
39	1
40	1
41	1
42	1
43	1
44	1
45	1
46	1
47	1
48	1
49	1
50	1
51	1
52	1
53	1
54	1
55	1
56	1
57	1
58	1
59	1
60	1
61	1
62	1
63	1
64	1
65	1
66	1
67	1
68	1
69	1
70	1
71	1
72	1
73	1
74	1
75	1
76	1
77	1
78	1
79	1
80	1
81	1
82	1
83	1
84	1
85	1
86	1
87	1
88	1
89	1
90	1
91	1
92	1
93	1
94	1
95	1
96	1
97	1
98	1
99	1
100	1
101	1
102	1
103	1
104	1
105	1
106	1
107	1
108	1
109	1
110	1
111	1
112	1
113	1
114	1
115	1
116	1
117	1
118	1
119	1
120	1
121	1
122	1
123	1
124	1
125	1
126	1
127	1
128	1
129	1
130	1
131	1
132	1
133	1
134	1
135	1
136	1
137	1
138	1
139	1
140	1
141	1
142	1
143	1
144	1
145	1
146	1
147	1
148	1
149	1
150	1
151	1
152	1
153	1
154	1
155	1
156	1
157	1
158	1
159	1
160	1
161	1
162	1
163	1
164	1
165	1
166	1
167	1
168	1
169	1
170	1
171	1
172	1
173	1
174	1
175	1
176	1
177	1
178	1
179	1
180	1
181	1
182	1
183	1
184	1
185	1
186	1
187	1
188	1
189	1
190	1
191	1
192	1
193	1
194	1
195	1
196	1
197	1
198	1
199	1
200	1
201	1
202	1
203	1
204	1
205	1
206	1
207	1
208	1
209	1
210	1
211	1
212	1
213	1
214	1
215	1
216	1
217	1
218	1
219	1
220	1
221	1
222	1
223	1
224	1
225	1
226	1
227	1
228	1
229	1
230	1
231	1
232	1
233	1
234	1
235	1
236	1
237	1
DEPOT_SECTION
1
-1
EOF
